(set-logic QF_S)
(declare-fun M7_10 () String)
(declare-fun T17_10 () String)
(declare-fun M10_10 () String)
(declare-fun T24_10 () String)
(declare-fun M24_10 () String)
(declare-fun P1_10 () String)
(declare-fun P17_10 () String)
(declare-fun P10_10 () String)
(declare-fun PCTEMP_LHS_4_idx_19 () String)
(declare-fun PCTEMP_LHS_4_idx_18 () String)
(declare-fun P0_10 () String)
(declare-fun PCTEMP_LHS_4_idx_15 () String)
(declare-fun PCTEMP_LHS_4_idx_14 () String)
(declare-fun PCTEMP_LHS_4_idx_17 () String)
(declare-fun PCTEMP_LHS_4_idx_16 () String)
(declare-fun PCTEMP_LHS_4_idx_11 () String)
(declare-fun PCTEMP_LHS_4_idx_10 () String)
(declare-fun PCTEMP_LHS_4_idx_13 () String)
(declare-fun PCTEMP_LHS_4_idx_12 () String)
(declare-fun P5_10 () String)
(declare-fun P7_10 () String)
(declare-fun M4_10 () String)
(declare-fun M3_10 () String)
(declare-fun T13_10 () String)
(declare-fun T14_10 () String)
(declare-fun T3_10 () String)
(declare-fun P11_10 () String)
(declare-fun P12_10 () String)
(declare-fun T10_10 () String)
(declare-fun T6_10 () String)
(declare-fun P22_10 () String)
(declare-fun M14_10 () String)
(declare-fun T15_10 () String)
(declare-fun T22_10 () String)
(declare-fun M5_10 () String)
(declare-fun T8_10 () String)
(declare-fun T5_2 () String)
(declare-fun T5_10 () String)
(declare-fun M19_10 () String)
(declare-fun P24_10 () String)
(declare-fun P8_10 () String)
(declare-fun PCTEMP_LHS_4 () String)
(declare-fun PCTEMP_LHS_3 () String)
(declare-fun M12_10 () String)
(declare-fun P15_10 () String)
(declare-fun M17_10 () String)
(declare-fun T21_10 () String)
(declare-fun P14_10 () String)
(declare-fun T20_10 () String)
(declare-fun T19_10 () String)
(declare-fun M9_10 () String)
(declare-fun T23_10 () String)
(declare-fun T1_8 () String)
(declare-fun T1_4 () String)
(declare-fun T1_2 () String)
(declare-fun M11_10 () String)
(declare-fun T3_2 () String)
(declare-fun P13_10 () String)
(declare-fun T4_2 () String)
(declare-fun P20_10 () String)
(declare-fun T3_8 () String)
(declare-fun M23_10 () String)
(declare-fun M21_10 () String)
(declare-fun T1_10 () String)
(declare-fun M13_10 () String)
(declare-fun T7_10 () String)
(declare-fun P2_10 () String)
(declare-fun P23_10 () String)
(declare-fun var_0xINPUT_50928 () String)
(declare-fun T9_10 () String)
(declare-fun P6_10 () String)
(declare-fun T0_4 () String)
(declare-fun M20_10 () String)
(declare-fun T11_10 () String)
(declare-fun T0_2 () String)
(declare-fun M8_10 () String)
(declare-fun T2_8 () String)
(declare-fun T2_2 () String)
(declare-fun M15_10 () String)
(declare-fun P4_10 () String)
(declare-fun PCTEMP_LHS_4_idx_21 () String)
(declare-fun M6_10 () String)
(declare-fun P9_10 () String)
(declare-fun PCTEMP_LHS_4_idx_23 () String)
(declare-fun T12_10 () String)
(declare-fun M2_10 () String)
(declare-fun P3_10 () String)
(declare-fun M18_10 () String)
(declare-fun T18_10 () String)
(declare-fun T4_10 () String)
(declare-fun M1_10 () String)
(declare-fun M0_10 () String)
(declare-fun PCTEMP_LHS_4_idx_9 () String)
(declare-fun PCTEMP_LHS_4_idx_8 () String)
(declare-fun P18_10 () String)
(declare-fun PCTEMP_LHS_4_idx_1 () String)
(declare-fun PCTEMP_LHS_4_idx_0 () String)
(declare-fun PCTEMP_LHS_4_idx_3 () String)
(declare-fun PCTEMP_LHS_4_idx_2 () String)
(declare-fun PCTEMP_LHS_4_idx_5 () String)
(declare-fun PCTEMP_LHS_4_idx_4 () String)
(declare-fun PCTEMP_LHS_4_idx_7 () String)
(declare-fun PCTEMP_LHS_4_idx_6 () String)
(declare-fun P19_10 () String)
(declare-fun T25_10 () String)
(declare-fun M16_10 () String)
(declare-fun P16_10 () String)
(declare-fun PCTEMP_LHS_4_idx_20 () String)
(declare-fun T16_10 () String)
(declare-fun PCTEMP_LHS_4_idx_22 () String)
(declare-fun P21_10 () String)
(declare-fun PCTEMP_LHS_4_idx_24 () String)
(declare-fun PCTEMP_LHS_4_idx_25 () String)
(declare-fun T0_10 () String)
(declare-fun M22_10 () String)
(declare-fun T2_10 () String)
(assert (and (= var_0xINPUT_50928 (concat T0_2 T1_2)) (= (len T0_2) 0) (= T1_2 (concat T2_2 T3_2)) (= T2_2 (concat T4_2 T5_2)) (= T5_2 "?") (not (in T4_2 /\?/)) (= var_0xINPUT_50928 (concat T0_4 T1_4)) (= (len T0_4) 0) (not (in T1_4 /#/)) (= var_0xINPUT_50928 (concat T1_8 T2_8)) (= T2_8 (concat PCTEMP_LHS_3 T3_8)) (= T25_10 PCTEMP_LHS_4_idx_25) (= T0_10 PCTEMP_LHS_3) (= M24_10 "&") (not (in PCTEMP_LHS_4_idx_24 /&/)) (= P24_10 (concat PCTEMP_LHS_4_idx_24 M24_10)) (= T24_10 (concat P24_10 T25_10)) (= M23_10 "&") (not (in PCTEMP_LHS_4_idx_23 /&/)) (= P23_10 (concat PCTEMP_LHS_4_idx_23 M23_10)) (= T23_10 (concat P23_10 T24_10)) (= M22_10 "&") (not (in PCTEMP_LHS_4_idx_22 /&/)) (= P22_10 (concat PCTEMP_LHS_4_idx_22 M22_10)) (= T22_10 (concat P22_10 T23_10)) (= M21_10 "&") (not (in PCTEMP_LHS_4_idx_21 /&/)) (= P21_10 (concat PCTEMP_LHS_4_idx_21 M21_10)) (= T21_10 (concat P21_10 T22_10)) (= M20_10 "&") (not (in PCTEMP_LHS_4_idx_20 /&/)) (= P20_10 (concat PCTEMP_LHS_4_idx_20 M20_10)) (= T20_10 (concat P20_10 T21_10)) (= M19_10 "&") (not (in PCTEMP_LHS_4_idx_19 /&/)) (= P19_10 (concat PCTEMP_LHS_4_idx_19 M19_10)) (= T19_10 (concat P19_10 T20_10)) (= M18_10 "&") (not (in PCTEMP_LHS_4_idx_18 /&/)) (= P18_10 (concat PCTEMP_LHS_4_idx_18 M18_10)) (= T18_10 (concat P18_10 T19_10)) (= M17_10 "&") (not (in PCTEMP_LHS_4_idx_17 /&/)) (= P17_10 (concat PCTEMP_LHS_4_idx_17 M17_10)) (= T17_10 (concat P17_10 T18_10)) (= M16_10 "&") (not (in PCTEMP_LHS_4_idx_16 /&/)) (= P16_10 (concat PCTEMP_LHS_4_idx_16 M16_10)) (= T16_10 (concat P16_10 T17_10)) (= M15_10 "&") (not (in PCTEMP_LHS_4_idx_15 /&/)) (= P15_10 (concat PCTEMP_LHS_4_idx_15 M15_10)) (= T15_10 (concat P15_10 T16_10)) (= M14_10 "&") (not (in PCTEMP_LHS_4_idx_14 /&/)) (= P14_10 (concat PCTEMP_LHS_4_idx_14 M14_10)) (= T14_10 (concat P14_10 T15_10)) (= M13_10 "&") (not (in PCTEMP_LHS_4_idx_13 /&/)) (= P13_10 (concat PCTEMP_LHS_4_idx_13 M13_10)) (= T13_10 (concat P13_10 T14_10)) (= M12_10 "&") (not (in PCTEMP_LHS_4_idx_12 /&/)) (= P12_10 (concat PCTEMP_LHS_4_idx_12 M12_10)) (= T12_10 (concat P12_10 T13_10)) (= M11_10 "&") (not (in PCTEMP_LHS_4_idx_11 /&/)) (= P11_10 (concat PCTEMP_LHS_4_idx_11 M11_10)) (= T11_10 (concat P11_10 T12_10)) (= M10_10 "&") (not (in PCTEMP_LHS_4_idx_10 /&/)) (= P10_10 (concat PCTEMP_LHS_4_idx_10 M10_10)) (= T10_10 (concat P10_10 T11_10)) (= M9_10 "&") (not (in PCTEMP_LHS_4_idx_9 /&/)) (= P9_10 (concat PCTEMP_LHS_4_idx_9 M9_10)) (= T9_10 (concat P9_10 T10_10)) (= M8_10 "&") (not (in PCTEMP_LHS_4_idx_8 /&/)) (= P8_10 (concat PCTEMP_LHS_4_idx_8 M8_10)) (= T8_10 (concat P8_10 T9_10)) (= M7_10 "&") (not (in PCTEMP_LHS_4_idx_7 /&/)) (= P7_10 (concat PCTEMP_LHS_4_idx_7 M7_10)) (= T7_10 (concat P7_10 T8_10)) (= M6_10 "&") (not (in PCTEMP_LHS_4_idx_6 /&/)) (= P6_10 (concat PCTEMP_LHS_4_idx_6 M6_10)) (= T6_10 (concat P6_10 T7_10)) (= M5_10 "&") (not (in PCTEMP_LHS_4_idx_5 /&/)) (= P5_10 (concat PCTEMP_LHS_4_idx_5 M5_10)) (= T5_10 (concat P5_10 T6_10)) (= M4_10 "&") (not (in PCTEMP_LHS_4_idx_4 /&/)) (= P4_10 (concat PCTEMP_LHS_4_idx_4 M4_10)) (= T4_10 (concat P4_10 T5_10)) (= M3_10 "&") (not (in PCTEMP_LHS_4_idx_3 /&/)) (= P3_10 (concat PCTEMP_LHS_4_idx_3 M3_10)) (= T3_10 (concat P3_10 T4_10)) (= M2_10 "&") (not (in PCTEMP_LHS_4_idx_2 /&/)) (= P2_10 (concat PCTEMP_LHS_4_idx_2 M2_10)) (= T2_10 (concat P2_10 T3_10)) (= M1_10 "&") (not (in PCTEMP_LHS_4_idx_1 /&/)) (= P1_10 (concat PCTEMP_LHS_4_idx_1 M1_10)) (= T1_10 (concat P1_10 T2_10)) (= M0_10 "&") (not (in PCTEMP_LHS_4_idx_0 /&/)) (= P0_10 (concat PCTEMP_LHS_4_idx_0 M0_10)) (= T0_10 (concat P0_10 T1_10)) (>= (len var_0xINPUT_50928) 1) (>= (len T1_8) 1)))
(check-sat var_0xINPUT_50928)